(set-logic QF_S)
(declare-fun T_150 () Bool)
(declare-fun T_151 () Bool)
(declare-fun T_SELECT_28 () Bool)
(declare-fun I0_496 () Int)
(declare-fun I0_500 () Int)
(declare-fun I1_496 () Int)
(declare-fun I1_500 () Int)
(declare-fun I2_496 () Int)
(declare-fun I2_500 () Int)
(declare-fun PCTEMP_LHS_130 () Int)
(declare-fun T_155 () Int)
(declare-fun NEW_DGNode_1198 () String)
(declare-fun NEW_DGNode_1199 () String)
(declare-fun PCTEMP_LHS_162 () String)
(assert (= PCTEMP_LHS_162 NEW_DGNode_1199))
(assert (= NEW_DGNode_1199 NEW_DGNode_1198))
(assert (not (str.in.re NEW_DGNode_1199 (str.to.re "+"))))
(assert (not (str.in.re NEW_DGNode_1198 (str.to.re "%"))))
(assert (= T_SELECT_28 (not (= PCTEMP_LHS_130 (- 1)))))
(assert T_151)
(assert (= T_151 (not T_150)))
(assert (= T_150 (= PCTEMP_LHS_130 (- 1))))
(assert (= I0_496 (- PCTEMP_LHS_130 0)))
(assert (>= PCTEMP_LHS_130 0))
(assert (= I2_496 I1_496))
(assert (<= PCTEMP_LHS_130 I1_496))
(assert (= T_155 (+ PCTEMP_LHS_130 1)))
(assert (>= T_155 0))
(assert (>= I2_500 T_155))
(assert (= I2_500 I1_500))
(assert (<= I2_500 I1_500))
(assert (= I0_500 (- I2_500 T_155)))
(assert (= I0_500 (str.len PCTEMP_LHS_162))) ; len 0
(check-sat)
